20	5
0	3	2	3	1
1	1	14
2	2	19	10
3	1	5
4	2	12	5
5	1	16
6	2	9	11
7	2	20	17
8	1	16
9	2	8	18
10	1	6
11	1	4
12	2	18	15
13	0
14	0
15	1	21
16	1	21
17	1	21
18	1	21
19	1	21
20	1	21
21	0
0	0	0	0	0	0	0
1	5	3	4	0	0	0
2	3	0	2	1	0	0
3	9	4	2	4	4	2
4	3	3	0	0	0	4
5	1	4	1	1	0	5
6	3	3	0	3	0	5
7	6	0	0	0	4	0
8	9	0	0	0	0	2
9	6	2	0	1	4	0
10	5	0	4	0	0	0
11	10	2	1	3	2	0
12	6	1	0	5	0	0
13	10	1	4	0	1	0
14	10	3	3	0	1	0
15	9	1	4	0	3	0
16	3	2	0	5	0	0
17	2	0	2	5	5	3
18	5	0	5	0	0	2
19	6	0	4	0	0	0
20	2	0	4	0	1	0
21	0	0	0	0	0	0
5	6	7	7	5
